(set-info :status unknown)
(declare-fun %y () (_ BitVec 11))
(declare-fun %x () (_ BitVec 11))
(declare-fun |ana_WillNotOverflowSignedAdd(%x, %y)| () (_ BitVec 1))
(declare-fun u_%sy () (_ BitVec 8))
(declare-fun u_%sx () (_ BitVec 8))
(assert
 (let (($x4764 (= (bvadd ((_ sign_extend 1) %x) ((_ sign_extend 1) %y)) ((_ sign_extend 1) (bvadd %x %y)))))
 (let (($x3382 (= |ana_WillNotOverflowSignedAdd(%x, %y)| (_ bv1 1))))
 (and (=> $x3382 $x4764) (or (= u_%sx (_ bv1 8)) (= u_%sy (_ bv1 8))) $x3382 (not $x4764)))))
(check-sat)
